unsat
(:SPACER-cluster-out-of-gas           146
 :SPACER-concretize                   32
 :SPACER-conj                         119
 :SPACER-inductive-gen                428
 :SPACER-inductive-gen-weaken-fail    538
 :SPACER-inductive-gen-weaken-success 57
 :SPACER-inductive-level              56
 :SPACER-max-depth                    56
 :SPACER-max-query-lvl                56
 :SPACER-non-local-gen                343
 :SPACER-num-active-lemmas            87
 :SPACER-num-ctp-blocked              1068
 :SPACER-num-invariants               78
 :SPACER-num-is_invariant             6453
 :SPACER-num-lemma-jumped             95
 :SPACER-num-lemmas                   537
 :SPACER-num-non-lin                  32
 :SPACER-num-pobs                     331
 :SPACER-num-propagations             4877
 :SPACER-num-queries                  248
 :SPACER-subsume-failed               6
 :SPACER-subsume-pob                  75
 :SPACER-subsume-success              271
 :added-eqs                           65164
 :arith-assert-diseq                  183010
 :arith-assert-lower                  460440
 :arith-assert-upper                  538680
 :arith-bound-prop                    10142
 :arith-conflicts                     628
 :arith-eq-adapter                    5472
 :arith-fixed-eqs                     14254
 :arith-num-rows                      92
 :arith-offset-eqs                    8692
 :arith-pivots                        8120
 :arith-row-summations                116726
 :arith-tableau-max-columns           184
 :arith-tableau-max-rows              92
 :conflicts                           16216
 :decisions                           389732
 :del-clause                          15478
 :final-checks                        2188
 :iuc_solver.num_proxies              542
 :max-memory                          161.58
 :memory                              138.43
 :minimized-lits                      2588
 :mk-bool-var                         44360
 :mk-clause                           50000
 :num-allocs                          36270940350.00
 :num-checks                          15422
 :pool_solver.checks                  7711
 :pool_solver.checks.sat              1012
 :pool_solver.checks.undef            82
 :propagations                        3240044
 :rlimit-count                        10085921
 :time                                13.29
 :time.iuc_solver.get_iuc             0.41
 :time.iuc_solver.get_iuc.hyp_reduce1 0.10
 :time.iuc_solver.get_iuc.hyp_reduce2 0.16
 :time.iuc_solver.get_iuc.learn_core  0.06
 :time.pool_solver.proof              0.07
 :time.pool_solver.smt.total          9.68
 :time.pool_solver.smt.total.sat      1.83
 :time.pool_solver.smt.total.undef    0.31
 :time.spacer.ctp                     0.31
 :time.spacer.init_rules              0.00
 :time.spacer.mbp                     0.06
 :time.spacer.solve                   13.23
 :time.spacer.solve.propagate         8.58
 :time.spacer.solve.reach             4.65
 :time.spacer.solve.reach.children    0.22
 :time.spacer.solve.reach.cluster     0.83
 :time.spacer.solve.reach.gen.global  0.77
 :time.spacer.solve.reach.gen.ind     0.63
 :time.spacer.solve.reach.is-reach    0.04)
(:max-memory   161.58
 :memory       138.43
 :num-allocs   36270940350.00
 :rlimit-count 10085921
 :time         13.29
 :total-time   13.31)
